NAME : kroC100-R-5-0-a.50085.tour
COMMENT : Length = 50085
COMMENT : Found by LKH-3 [Keld Helsgaun] Tue Jul 30 13:14:56 2024
TYPE : TOUR
DIMENSION : 100
TOUR_SECTION
1
53
27
13
79
31
42
17
71
86
70
21
73
74
36
44
51
61
7
78
82
63
66
11
97
57
3
23
76
91
95
50
56
62
75
6
67
85
49
18
46
29
37
48
87
81
33
99
4
77
80
30
35
94
43
72
98
22
55
64
20
34
28
38
83
2
54
65
40
60
93
19
92
10
14
100
96
84
16
32
24
26
9
52
45
69
59
41
89
68
5
39
88
58
90
25
8
47
15
12
-1
EOF
